s td 755 2 924
b 1 1 613
b 2 613 614
b 3 221 222
b 4 2 221
b 5 2 505
b 6 505 506
b 7 3 699
b 8 4 206
b 9 4 693
b 10 693 694
b 11 5 694
b 12 5 701
b 13 701 702
b 14 6 264
b 15 7 356
b 16 8 255
b 17 9
b 18 10
b 19 555 556
b 20 11 555
b 21 11 888
b 22 12 745
b 23 745 746
b 24 13 707
b 25 707 708
b 26 14
b 27 15 463
b 28 463 464
b 29 16 240
b 30 16 615
b 31 17 245
b 32 17 616
b 33 18 336
b 34 19 448
b 35 19 493
b 36 20 494
b 37 21 784
b 38 21 825
b 39 22 295
b 40 22 835
b 41 23
b 42 24
b 43 25
b 44 26 332
b 45 26 771
b 46 26 859
b 47 859 860
b 48 27 459
b 49 28
b 50 29
b 51 30
b 52 241 242
b 53 31 242
b 54 31 303
b 55 32 577
b 56 577 578
b 57 281 282
b 58 33 282
b 59 33 569
b 60 34
b 61 35 867
b 62 36
b 63 197 198
b 64 37 198
b 65 51 393
b 66 583 584
b 67 37 584
b 68 37 591
b 69 591 592
b 70 51 592
b 71 51 765
b 72 38 848
b 73 39 337
b 74 39 599
b 75 695 696
b 76 40 695
b 77 40 772
b 78 41 755
b 79 42
b 80 43
b 81 44 231
b 82 44 530
b 83 44 668
b 84 667 668
b 85 668
b 86 45
b 87 46 545
b 88 545 546
b 89 47 647
b 90 48 340
b 91 49 560
b 92 50 429
b 93 429 430
b 94 52 766
b 95 53 385
b 96 54
b 97 55 788
b 98 787 788
b 99 788
b 100 56 864
b 101 57 238
b 102 237 238
b 103 238
b 104 58 861
b 105 59 423
b 106 59 741
b 107 60 571
b 108 61 298
b 109 62 718
b 110 717 718
b 111 718
b 112 561 562
b 113 63 561
b 114 63 658
b 115 64
b 116 65 839
b 117 66 479
b 118 67 779
b 119 68 780
b 120 69 288
b 121 70 220
b 122 71 249
b 123 71 305
b 124 71 416
b 125 72 250
b 126 73 799
b 127 799 800
b 128 74
b 129 75 353
b 130 75 618
b 131 75 786
b 132 76 225
b 133 225 226
b 134 90 226
b 135 90 462
b 136 90 557
b 137 77
b 138 213 214
b 139 78 214
b 140 78 603
b 141 78 792
b 142 79 315
b 143 79 604
b 144 80 794
b 145 80 885
b 146 781 782
b 147 81 781
b 148 81 801
b 149 82
b 150 83
b 151 84 374
b 152 373 374
b 153 374
b 154 85 849
b 155 86 775
b 156 86 850
b 157 253 254
b 158 87 254
b 159 87 359
b 160 87 749
b 161 653 654
b 162 101 653
b 163 101 750
b 164 749 750
b 165 750
b 166 88 286
b 167 89 451
b 168 91 716
b 169 317 318
b 170 92 317
b 171 92 660
b 172 93 316
b 173 93 620
b 174 94 622
b 175 95 209
b 176 95 261
b 177 95 820
b 178 96 210
b 179 97 467
b 180 97 474
b 181 98 456
b 182 98 565
b 183 99 904
b 184 99 923
b 185 100 924
b 186 102 290
b 187 102 669
b 188 102 866
b 189 865 866
b 190 866
b 191 103 580
b 192 579 580
b 193 580
b 194 307 308
b 195 104 307
b 196 104 558
b 197 105 492
b 198 106 207
b 199 107
b 200 199 200
b 201 108 199
b 202 108 547
b 203 109 548
b 204 109 913
b 205 110 751
b 206 751 752
b 207 111 322
b 208 111 598
b 209 112 341
b 210 112 566
b 211 113 408
b 212 113 747
b 213 747 748
b 214 114 908
b 215 115
b 216 116 312
b 217 311 312
b 218 312
b 219 117 611
b 220 611 612
b 221 131 612
b 222 131 712
b 223 711 712
b 224 712
b 225 118 641
b 226 361 362
b 227 119 361
b 228 119 586
b 229 120 299
b 230 120 418
b 231 120 533
b 232 121 380
b 233 121 915
b 234 915 916
b 235 122 527
b 236 123 574
b 237 123 688
b 238 124 301
b 239 124 814
b 240 813 814
b 241 814
b 242 125 345
b 243 126 342
b 244 126 677
b 245 127
b 246 128 872
b 247 129 874
b 248 130 404
b 249 132 475
b 250 132 582
b 251 133 410
b 252 395 396
b 253 134 395
b 254 134 436
b 255 135 382
b 256 135 445
b 257 135 589
b 258 136
b 259 137 397
b 260 137 439
b 261 137 656
b 262 138 309
b 263 138 553
b 264 139 896
b 265 140 678
b 266 141 399
b 267 141 458
b 268 142 212
b 269 142 817
b 270 143
b 271 144 422
b 272 145 267
b 273 145 838
b 274 837 838
b 275 838
b 276 146 535
b 277 146 713
b 278 147 714
b 279 148 477
b 280 148 760
b 281 759 760
b 282 760
b 283 149
b 284 150 471
b 285 471 472
b 286 151 472
b 287 151 857
b 288 152 722
b 289 721 722
b 290 722
b 291 153 777
b 292 154
b 293 169 387
b 294 155 400
b 295 155 503
b 296 503 504
b 297 169 504
b 298 169 893
b 299 156 623
b 300 156 818
b 301 157
b 302 158 483
b 303 483 484
b 304 172 484
b 305 172 541
b 306 172 770
b 307 769 770
b 308 770
b 309 159
b 310 160 891
b 311 891 892
b 312 161 216
b 313 161 737
b 314 162 909
b 315 405 406
b 316 175 405
b 317 175 625
b 318 625 626
b 319 176 626
b 320 176 910
b 321 909 910
b 322 910
b 323 163 292
b 324 501 502
b 325 163 502
b 326 163 845
b 327 164
b 328 165 497
b 329 165 858
b 330 166 383
b 331 166 601
b 332 167
b 333 168 671
b 334 671 672
b 335 182 672
b 336 182 679
b 337 679 680
b 338 170
b 339 171
b 340 173 587
b 341 173 593
b 342 174 319
b 343 174 499
b 344 499 500
b 345 177 293
b 346 177 540
b 347 539 540
b 348 540
b 349 178 519
b 350 179 520
b 351 519 520
b 352 520
b 353 180 384
b 354 180 807
b 355 807 808
b 356 181 235
b 357 181 691
b 358 183
b 359 184
b 360 185 229
b 361 186 542
b 362 187 352
b 363 351 352
b 364 352
b 365 188
b 366 189 275
b 367 275 276
b 368 190
b 369 191 414
b 370 413 414
b 371 414
b 372 192 344
b 373 192 605
b 374 193
b 375 194
b 376 325 326
b 377 195 325
b 378 195 692
b 379 196
b 380 201
b 381 202
b 382 203
b 383 204
b 384 205
b 385 208
b 386 211
b 387 215
b 388 217 218
b 389 219
b 390 223
b 391 224
b 392 227
b 393 228
b 394 230
b 395 232
b 396 233
b 397 234
b 398 236
b 399 239
b 400 243
b 401 244
b 402 246
b 403 247
b 404 248
b 405 251
b 406 252
b 407 256
b 408 257
b 409 258
b 410 259
b 411 260
b 412 262
b 413 263
b 414 265
b 415 266
b 416 268
b 417 269
b 418 270
b 419 271 272
b 420 273
b 421 274
b 422 277
b 423 278
b 424 279
b 425 280
b 426 283
b 427 284
b 428 285
b 429 287
b 430 289
b 431 291
b 432 294
b 433 296
b 434 297
b 435 300
b 436 302
b 437 304
b 438 306
b 439 310
b 440 313 314
b 441 320
b 442 321
b 443 323 324
b 444 327 328
b 445 329 330
b 446 331
b 447 333
b 448 334
b 449 335
b 450 338
b 451 339
b 452 343
b 453 346
b 454 347
b 455 348
b 456 349 350
b 457 354
b 458 355
b 459 357
b 460 358
b 461 360
b 462 363
b 463 364
b 464 365
b 465 366
b 466 367
b 467 368
b 468 369
b 469 370
b 470 371
b 471 372
b 472 375 376
b 473 377 378
b 474 379
b 475 381
b 476 386
b 477 388
b 478 389
b 479 390
b 480 391
b 481 392
b 482 394
b 483 398
b 484 401 402
b 485 403
b 486 407
b 487 409
b 488 411 412
b 489 415
b 490 417
b 491 419
b 492 420
b 493 421
b 494 424
b 495 425
b 496 426
b 497 427
b 498 428
b 499 431 432
b 500 433
b 501 434
b 502 435
b 503 437
b 504 438
b 505 440
b 506 441 442
b 507 443
b 508 444
b 509 446
b 510 447
b 511 449
b 512 450
b 513 452
b 514 453
b 515 454
b 516 455
b 517 457
b 518 460
b 519 461
b 520 465
b 521 466
b 522 468
b 523 469
b 524 470
b 525 473
b 526 476
b 527 478
b 528 480
b 529 481 482
b 530 485 486
b 531 487
b 532 488
b 533 489 490
b 534 491
b 535 495
b 536 496
b 537 498
b 538 507
b 539 508
b 540 509
b 541 510
b 542 511
b 543 512
b 544 513
b 545 514
b 546 515 516
b 547 517 518
b 548 521 522
b 549 523 524
b 550 525 526
b 551 528
b 552 529
b 553 531
b 554 532
b 555 534
b 556 536
b 557 537
b 558 538
b 559 543
b 560 544
b 561 549
b 562 550
b 563 551
b 564 552
b 565 554
b 566 559
b 567 563
b 568 564
b 569 567
b 570 568
b 571 570
b 572 572
b 573 573
b 574 575 576
b 575 581
b 576 585
b 577 588
b 578 590
b 579 594
b 580 595
b 581 596
b 582 597
b 583 600
b 584 602
b 585 606
b 586 607
b 587 608
b 588 609
b 589 610
b 590 617
b 591 619
b 592 621
b 593 624
b 594 627
b 595 628
b 596 629 630
b 597 631
b 598 632
b 599 633 634
b 600 635 636
b 601 637
b 602 638
b 603 639 640
b 604 642
b 605 643 644
b 606 645
b 607 646
b 608 648
b 609 649 650
b 610 651
b 611 652
b 612 655
b 613 657
b 614 659
b 615 661
b 616 662
b 617 663 664
b 618 665 666
b 619 670
b 620 673
b 621 674
b 622 675
b 623 676
b 624 681
b 625 682
b 626 683
b 627 684
b 628 685
b 629 686
b 630 687
b 631 689 690
b 632 697 698
b 633 700
b 634 703 704
b 635 705
b 636 706
b 637 709 710
b 638 715
b 639 719 720
b 640 723 724
b 641 725
b 642 726
b 643 727 728
b 644 729
b 645 730
b 646 731
b 647 732
b 648 733
b 649 734
b 650 735
b 651 736
b 652 738
b 653 739 740
b 654 742
b 655 743
b 656 744
b 657 753
b 658 754
b 659 756
b 660 757
b 661 758
b 662 761
b 663 762
b 664 763 764
b 665 767 768
b 666 773
b 667 774
b 668 776
b 669 778
b 670 783
b 671 785
b 672 789
b 673 790
b 674 791
b 675 793
b 676 795
b 677 796
b 678 797
b 679 798
b 680 802
b 681 803
b 682 804
b 683 805
b 684 806
b 685 809 810
b 686 811
b 687 812
b 688 815
b 689 816
b 690 819
b 691 821
b 692 822
b 693 823
b 694 824
b 695 826
b 696 827
b 697 828
b 698 829
b 699 830
b 700 831
b 701 832
b 702 833
b 703 834
b 704 836
b 705 840
b 706 841
b 707 842
b 708 843
b 709 844
b 710 846
b 711 847
b 712 851
b 713 852
b 714 853 854
b 715 855
b 716 856
b 717 862
b 718 863
b 719 868
b 720 869 870
b 721 871
b 722 873
b 723 875
b 724 876
b 725 877
b 726 878
b 727 879
b 728 880
b 729 881
b 730 882
b 731 883
b 732 884
b 733 886
b 734 887
b 735 889
b 736 890
b 737 894
b 738 895
b 739 897
b 740 898
b 741 899 900
b 742 901
b 743 902
b 744 903
b 745 905
b 746 906
b 747 907
b 748 911
b 749 912
b 750 914
b 751 917
b 752 918
b 753 919
b 754 920
b 755 921 922
1 2
1 3
1 7
1 8
1 14
1 15
1 16
1 17
1 18
1 19
1 22
1 24
1 26
1 27
1 29
1 31
1 33
1 34
1 36
1 37
1 39
1 41
1 42
1 43
1 44
1 48
1 49
1 50
1 51
1 52
1 55
1 57
1 60
1 61
1 62
1 63
1 72
1 73
1 75
1 78
1 79
1 80
1 81
1 86
1 87
1 89
1 90
1 91
1 92
1 94
1 95
1 96
1 97
1 100
1 101
1 104
1 105
1 107
1 108
1 109
1 112
1 115
1 116
1 117
1 118
1 119
1 120
1 121
1 122
1 125
1 126
1 128
1 129
1 132
1 137
1 138
1 142
1 144
1 146
1 149
1 150
1 151
1 154
1 155
1 157
1 166
1 167
1 168
1 169
1 172
1 174
1 175
1 178
1 179
1 181
1 183
1 185
1 186
1 191
1 194
1 197
1 198
1 199
1 200
1 203
1 205
1 207
1 209
1 211
1 214
1 215
1 216
1 219
1 225
1 226
1 229
1 232
1 235
1 236
1 238
1 242
1 243
1 245
1 246
1 247
1 248
1 249
1 251
1 252
1 255
1 258
1 259
1 262
1 264
1 265
1 266
1 268
1 270
1 271
1 272
1 276
1 278
1 279
1 283
1 284
1 288
1 291
1 292
1 293
1 299
1 301
1 302
1 309
1 310
1 312
1 314
1 323
1 327
1 328
1 330
1 332
1 333
1 338
1 339
1 340
1 342
1 345
1 349
1 353
1 356
1 358
1 359
1 360
1 361
1 362
1 365
1 366
1 368
1 369
1 372
1 374
1 375
1 376
1 379
1 380
1 381
1 382
1 383
1 384
1 385
1 386
1 387
1 388
1 389
1 390
1 391
1 392
1 393
1 394
1 395
1 396
1 397
1 398
1 399
1 400
1 401
1 402
1 403
1 404
1 405
1 406
1 407
1 408
1 409
1 410
1 411
1 412
1 413
1 414
1 415
1 416
1 417
1 418
1 419
1 420
1 421
1 422
1 423
1 424
1 425
1 426
1 427
1 428
1 429
1 430
1 431
1 432
1 433
1 434
1 435
1 436
1 437
1 438
1 439
1 440
1 441
1 442
1 443
1 444
1 445
1 446
1 447
1 448
1 449
1 450
1 451
1 452
1 453
1 454
1 455
1 456
1 457
1 458
1 459
1 460
1 461
1 462
1 463
1 464
1 465
1 466
1 467
1 468
1 469
1 470
1 471
1 472
1 473
1 474
1 475
1 476
1 477
1 478
1 479
1 480
1 481
1 482
1 483
1 484
1 485
1 486
1 487
1 488
1 489
1 490
1 491
1 492
1 493
1 494
1 495
1 496
1 497
1 498
1 499
1 500
1 501
1 502
1 503
1 504
1 505
1 506
1 507
1 508
1 509
1 510
1 511
1 512
1 513
1 514
1 515
1 516
1 517
1 518
1 519
1 520
1 521
1 522
1 523
1 524
1 525
1 526
1 527
1 528
1 529
1 530
1 531
1 532
1 533
1 534
1 535
1 536
1 537
1 538
1 539
1 540
1 541
1 542
1 543
1 544
1 545
1 546
1 547
1 548
1 549
1 550
1 551
1 552
1 553
1 554
1 555
1 556
1 557
1 558
1 559
1 560
1 561
1 562
1 563
1 564
1 565
1 566
1 567
1 568
1 569
1 570
1 571
1 572
1 573
1 574
1 575
1 576
1 577
1 578
1 579
1 580
1 581
1 582
1 583
1 584
1 585
1 586
1 587
1 588
1 589
1 590
1 591
1 592
1 593
1 594
1 595
1 596
1 597
1 598
1 599
1 600
1 601
1 602
1 603
1 604
1 605
1 606
1 607
1 608
1 609
1 610
1 611
1 612
1 613
1 614
1 615
1 616
1 617
1 618
1 619
1 620
1 621
1 622
1 623
1 624
1 625
1 626
1 627
1 628
1 629
1 630
1 631
1 632
1 633
1 634
1 635
1 636
1 637
1 638
1 639
1 640
1 641
1 642
1 643
1 644
1 645
1 646
1 647
1 648
1 649
1 650
1 651
1 652
1 653
1 654
1 655
1 656
1 657
1 658
1 659
1 660
1 661
1 662
1 663
1 664
1 665
1 666
1 667
1 668
1 669
1 670
1 671
1 672
1 673
1 674
1 675
1 676
1 677
1 678
1 679
1 680
1 681
1 682
1 683
1 684
1 685
1 686
1 687
1 688
1 689
1 690
1 691
1 692
1 693
1 694
1 695
1 696
1 697
1 698
1 699
1 700
1 701
1 702
1 703
1 704
1 705
1 706
1 707
1 708
1 709
1 710
1 711
1 712
1 713
1 714
1 715
1 716
1 717
1 718
1 719
1 720
1 721
1 722
1 723
1 724
1 725
1 726
1 727
1 728
1 729
1 730
1 731
1 732
1 733
1 734
1 735
1 736
1 737
1 738
1 739
1 740
1 741
1 742
1 743
1 744
1 745
1 746
1 747
1 748
1 749
1 750
1 751
1 752
1 753
1 754
1 755
3 4
4 5
5 6
8 9
9 10
10 11
11 12
12 13
19 20
20 21
22 23
24 25
27 28
29 30
31 32
34 35
37 38
39 40
44 46
45 46
46 47
52 53
53 54
55 56
57 58
58 59
63 64
64 68
65 71
66 67
67 68
68 69
69 70
70 71
73 74
75 76
76 77
81 83
82 83
83 85
84 85
87 88
92 93
97 99
98 99
101 103
102 103
105 106
109 111
110 111
112 113
113 114
122 124
123 124
126 127
129 131
130 131
132 133
133 134
134 136
135 136
138 139
139 141
140 141
142 143
144 145
146 147
147 148
151 153
152 153
155 156
157 158
158 160
159 160
160 164
161 162
162 163
163 165
164 165
169 170
170 171
172 173
175 177
176 177
179 180
181 182
183 184
186 188
187 188
188 190
189 190
191 193
192 193
194 195
195 196
200 201
201 202
203 204
205 206
207 208
209 210
211 212
212 213
216 218
217 218
219 220
220 221
221 222
222 224
223 224
226 227
227 228
229 231
230 231
232 233
233 234
236 237
238 239
239 241
240 241
243 244
249 250
252 253
253 254
255 257
256 257
259 261
260 261
262 263
266 267
268 269
272 273
273 275
274 275
276 277
279 280
280 282
281 282
284 285
285 286
286 287
288 290
289 290
293 298
294 295
295 296
296 297
297 298
299 300
302 303
303 304
304 306
305 306
306 308
307 308
310 311
312 313
314 321
315 316
316 317
317 318
318 319
319 320
320 322
321 322
323 326
324 325
325 326
328 329
330 331
333 334
334 335
335 336
336 337
340 341
342 343
343 344
345 346
346 348
347 348
349 351
350 352
351 352
353 354
354 355
356 357
362 364
363 364
366 367
369 371
370 371
372 373
376 377
377 378
